c 8x6 torusGrid
p tw 48 192
1 2
1 6
1 7
1 43
2 1
2 3
2 8
2 44
3 2
3 4
3 9
3 45
4 3
4 5
4 10
4 46
5 4
5 6
5 11
5 47
6 1
6 5
6 12
6 48
7 1
7 8
7 12
7 13
8 2
8 7
8 9
8 14
9 3
9 8
9 10
9 15
10 4
10 9
10 11
10 16
11 5
11 10
11 12
11 17
12 6
12 7
12 11
12 18
13 7
13 14
13 18
13 19
14 8
14 13
14 15
14 20
15 9
15 14
15 16
15 21
16 10
16 15
16 17
16 22
17 11
17 16
17 18
17 23
18 12
18 13
18 17
18 24
19 13
19 20
19 24
19 25
20 14
20 19
20 21
20 26
21 15
21 20
21 22
21 27
22 16
22 21
22 23
22 28
23 17
23 22
23 24
23 29
24 18
24 19
24 23
24 30
25 19
25 26
25 30
25 31
26 20
26 25
26 27
26 32
27 21
27 26
27 28
27 33
28 22
28 27
28 29
28 34
29 23
29 28
29 30
29 35
30 24
30 25
30 29
30 36
31 25
31 32
31 36
31 37
32 26
32 31
32 33
32 38
33 27
33 32
33 34
33 39
34 28
34 33
34 35
34 40
35 29
35 34
35 36
35 41
36 30
36 31
36 35
36 42
37 31
37 38
37 42
37 43
38 32
38 37
38 39
38 44
39 33
39 38
39 40
39 45
40 34
40 39
40 41
40 46
41 35
41 40
41 42
41 47
42 36
42 37
42 41
42 48
43 1
43 37
43 44
43 48
44 2
44 38
44 43
44 45
45 3
45 39
45 44
45 46
46 4
46 40
46 45
46 47
47 5
47 41
47 46
47 48
48 6
48 42
48 43
48 47
